param MAXWORK := 32;

param:
TNAME: TWORK :=
'india2.pm' 160
'india2.pf' 40
'kilo2.pm' 120
'kilo2.pf' 60
'november2.pm' 240
'november2.pf' 80
'romeo2.pm' 120
'romeo2.pf' 60
'victor2.pe' 240
'victor2.pm' 360
'victor2.pf' 80
;

set TSCOPE['india2.pm'] :=
3 4 7 8 9 10 11 14 15 16 17 18 21 22 23 24 25 28 29 30 31 32 35 36 37 38 39 42 43 44 45 46 49 50 51 52 53 56 57 58 59 60 63 64 65 66 67 70 71 72
73 74 77
;

set TSCOPE['india2.pf'] :=
78 79 80 81 84 85
;

set TSCOPE['kilo2.pm'] :=
3 4 7 8 9 10 11 14 15 16 17 18 21 22 23 24 25 28 29 30 31 32 35 36 37 38 39 42 43 44 45 46 49 50 51 52 53 56 57
;

set TSCOPE['kilo2.pf'] :=
58 59 60 63
;

set TSCOPE['november2.pm'] :=
3 4 7 8 9 10 11 14 15 16 17 18 21 22 23 24 25 28 29 30 31 32 35 36 37 38 39 42 43 44 45 46 49 50 51 52 53 56 57 58 59 60 63 64 65 66 67 70 71 72
73 74 77 78 79 80 81 84 85 86 87
;

set TSCOPE['november2.pf'] :=
88 91 92 93 94 95 98
;

set TSCOPE['romeo2.pm'] :=
3 4 7 8 9 10 11 14 15 16 17 18 21 22 23 24 25 28 29 30 31 32 35 36 37 38 39 42 43 44 45 46 49 50 51 52 53 56 57 58 59 60 63 64 65 66 67 70 71 72
73 74 77 78 79 80 81 84 85 86 87 88 91 92 93 94 95 98 99 100 101 102 105 106 107 108 109 112 113 114 115 116 119 120 121 123 126 127 128 129 130 133 134 135 136 137 140 141 142
;

set TSCOPE['romeo2.pf'] :=
143 144 147 148 149 150 151 154
;

set TSCOPE['victor2.pe'] :=
77 78 79 80 81 84 85 86 87 88 91 92 93 94 95 98 99 100
;

set TSCOPE['victor2.pm'] :=
101 102 105 106 107 108 109 112 113 114 115 116 119 120 121 123 126 127 128 129 130 133 134 135 136 137 140 141 142 143 144 147 148 149 150 151 154 155 156 157 158 161 162 163 164 165 168 169 170 171
172 175 176 177 178 179 182 183 184 185 186 189 190 191 192 193 196 197 198 199 200 203 204 205 206 207 210 211 212 213 214 217 218 219 220 221 224 225 226 227 228 231
;

set TSCOPE['victor2.pf'] :=
232 233 234 235 238 239 240 241 242 245
;

set ENAME :=
'PM.Fabian'
;

set ASSIGN :=
'PM.Fabian' 'india2.pf'
'PM.Fabian' 'india2.pm'
'PM.Fabian' 'kilo2.pf'
'PM.Fabian' 'kilo2.pm'
'PM.Fabian' 'november2.pf'
'PM.Fabian' 'november2.pm'
'PM.Fabian' 'romeo2.pf'
'PM.Fabian' 'romeo2.pm'
'PM.Fabian' 'victor2.pe'
'PM.Fabian' 'victor2.pf'
'PM.Fabian' 'victor2.pm'
;

param:
XBID: XBL XBU :=
'PM.Fabian' 'india2.pm' 3 3.0 4.0
'PM.Fabian' 'india2.pm' 4 3.0 4.0
'PM.Fabian' 'india2.pm' 7 3.0 4.0
'PM.Fabian' 'india2.pm' 8 3.0 4.0
'PM.Fabian' 'india2.pm' 9 3.0 4.0
'PM.Fabian' 'india2.pm' 10 3.0 4.0
'PM.Fabian' 'india2.pm' 11 3.0 4.0
'PM.Fabian' 'india2.pm' 14 3.0 4.0
'PM.Fabian' 'india2.pm' 15 3.0 4.0
'PM.Fabian' 'india2.pm' 16 3.0 4.0
'PM.Fabian' 'india2.pm' 17 3.0 4.0
'PM.Fabian' 'india2.pm' 18 3.0 4.0
'PM.Fabian' 'india2.pm' 21 3.0 4.0
'PM.Fabian' 'india2.pm' 22 3.0 4.0
'PM.Fabian' 'india2.pm' 23 3.0 4.0
'PM.Fabian' 'india2.pm' 24 3.0 4.0
'PM.Fabian' 'india2.pm' 25 3.0 4.0
'PM.Fabian' 'india2.pm' 28 3.0 4.0
'PM.Fabian' 'india2.pm' 29 3.0 4.0
'PM.Fabian' 'india2.pm' 30 3.0 4.0
'PM.Fabian' 'india2.pm' 31 3.0 4.0
'PM.Fabian' 'india2.pm' 32 3.0 4.0
'PM.Fabian' 'india2.pm' 35 3.0 4.0
'PM.Fabian' 'india2.pm' 36 3.0 4.0
'PM.Fabian' 'india2.pm' 37 3.0 4.0
'PM.Fabian' 'india2.pm' 38 3.0 4.0
'PM.Fabian' 'india2.pm' 39 3.0 4.0
'PM.Fabian' 'india2.pm' 42 3.0 4.0
'PM.Fabian' 'india2.pm' 43 3.0 4.0
'PM.Fabian' 'india2.pm' 44 3.0 4.0
'PM.Fabian' 'india2.pm' 45 3.0 4.0
'PM.Fabian' 'india2.pm' 46 3.0 4.0
'PM.Fabian' 'india2.pm' 49 3.0 4.0
'PM.Fabian' 'india2.pm' 50 3.0 4.0
'PM.Fabian' 'india2.pm' 51 3.0 4.0
'PM.Fabian' 'india2.pm' 52 3.0 4.0
'PM.Fabian' 'india2.pm' 53 3.0 4.0
'PM.Fabian' 'india2.pm' 56 3.0 4.0
'PM.Fabian' 'india2.pm' 57 3.0 4.0
'PM.Fabian' 'india2.pm' 58 3.0 4.0
'PM.Fabian' 'india2.pm' 59 3.0 4.0
'PM.Fabian' 'india2.pm' 60 3.0 4.0
'PM.Fabian' 'india2.pm' 63 3.0 4.0
'PM.Fabian' 'india2.pm' 64 3.0 4.0
'PM.Fabian' 'india2.pm' 65 3.0 4.0
'PM.Fabian' 'india2.pm' 66 3.0 4.0
'PM.Fabian' 'india2.pm' 67 3.0 4.0
'PM.Fabian' 'india2.pm' 70 3.0 4.0
'PM.Fabian' 'india2.pm' 71 3.0 4.0
'PM.Fabian' 'india2.pm' 72 3.0 4.0
'PM.Fabian' 'india2.pm' 73 3.0 4.0
'PM.Fabian' 'india2.pm' 74 3.0 4.0
'PM.Fabian' 'india2.pm' 77 3.0 4.0
'PM.Fabian' 'india2.pf' 78 6.0 7.0
'PM.Fabian' 'india2.pf' 79 6.0 7.0
'PM.Fabian' 'india2.pf' 80 6.0 7.0
'PM.Fabian' 'india2.pf' 81 6.0 7.0
'PM.Fabian' 'india2.pf' 84 6.0 7.0
'PM.Fabian' 'india2.pf' 85 6.0 7.0
'PM.Fabian' 'kilo2.pm' 3 3.0 4.0
'PM.Fabian' 'kilo2.pm' 4 3.0 4.0
'PM.Fabian' 'kilo2.pm' 7 3.0 4.0
'PM.Fabian' 'kilo2.pm' 8 3.0 4.0
'PM.Fabian' 'kilo2.pm' 9 3.0 4.0
'PM.Fabian' 'kilo2.pm' 10 3.0 4.0
'PM.Fabian' 'kilo2.pm' 11 3.0 4.0
'PM.Fabian' 'kilo2.pm' 14 3.0 4.0
'PM.Fabian' 'kilo2.pm' 15 3.0 4.0
'PM.Fabian' 'kilo2.pm' 16 3.0 4.0
'PM.Fabian' 'kilo2.pm' 17 3.0 4.0
'PM.Fabian' 'kilo2.pm' 18 3.0 4.0
'PM.Fabian' 'kilo2.pm' 21 3.0 4.0
'PM.Fabian' 'kilo2.pm' 22 3.0 4.0
'PM.Fabian' 'kilo2.pm' 23 3.0 4.0
'PM.Fabian' 'kilo2.pm' 24 3.0 4.0
'PM.Fabian' 'kilo2.pm' 25 3.0 4.0
'PM.Fabian' 'kilo2.pm' 28 3.0 4.0
'PM.Fabian' 'kilo2.pm' 29 3.0 4.0
'PM.Fabian' 'kilo2.pm' 30 3.0 4.0
'PM.Fabian' 'kilo2.pm' 31 3.0 4.0
'PM.Fabian' 'kilo2.pm' 32 3.0 4.0
'PM.Fabian' 'kilo2.pm' 35 3.0 4.0
'PM.Fabian' 'kilo2.pm' 36 3.0 4.0
'PM.Fabian' 'kilo2.pm' 37 3.0 4.0
'PM.Fabian' 'kilo2.pm' 38 3.0 4.0
'PM.Fabian' 'kilo2.pm' 39 3.0 4.0
'PM.Fabian' 'kilo2.pm' 42 3.0 4.0
'PM.Fabian' 'kilo2.pm' 43 3.0 4.0
'PM.Fabian' 'kilo2.pm' 44 3.0 4.0
'PM.Fabian' 'kilo2.pm' 45 3.0 4.0
'PM.Fabian' 'kilo2.pm' 46 3.0 4.0
'PM.Fabian' 'kilo2.pm' 49 3.0 4.0
'PM.Fabian' 'kilo2.pm' 50 3.0 4.0
'PM.Fabian' 'kilo2.pm' 51 3.0 4.0
'PM.Fabian' 'kilo2.pm' 52 3.0 4.0
'PM.Fabian' 'kilo2.pm' 53 3.0 4.0
'PM.Fabian' 'kilo2.pm' 56 3.0 4.0
'PM.Fabian' 'kilo2.pm' 57 3.0 4.0
'PM.Fabian' 'kilo2.pf' 58 15.0 16.0
'PM.Fabian' 'kilo2.pf' 59 15.0 16.0
'PM.Fabian' 'kilo2.pf' 60 15.0 16.0
'PM.Fabian' 'kilo2.pf' 63 15.0 16.0
'PM.Fabian' 'november2.pm' 3 3.0 4.0
'PM.Fabian' 'november2.pm' 4 3.0 4.0
'PM.Fabian' 'november2.pm' 7 3.0 4.0
'PM.Fabian' 'november2.pm' 8 3.0 4.0
'PM.Fabian' 'november2.pm' 9 3.0 4.0
'PM.Fabian' 'november2.pm' 10 3.0 4.0
'PM.Fabian' 'november2.pm' 11 3.0 4.0
'PM.Fabian' 'november2.pm' 14 3.0 4.0
'PM.Fabian' 'november2.pm' 15 3.0 4.0
'PM.Fabian' 'november2.pm' 16 3.0 4.0
'PM.Fabian' 'november2.pm' 17 3.0 4.0
'PM.Fabian' 'november2.pm' 18 3.0 4.0
'PM.Fabian' 'november2.pm' 21 3.0 4.0
'PM.Fabian' 'november2.pm' 22 3.0 4.0
'PM.Fabian' 'november2.pm' 23 3.0 4.0
'PM.Fabian' 'november2.pm' 24 3.0 4.0
'PM.Fabian' 'november2.pm' 25 3.0 4.0
'PM.Fabian' 'november2.pm' 28 3.0 4.0
'PM.Fabian' 'november2.pm' 29 3.0 4.0
'PM.Fabian' 'november2.pm' 30 3.0 4.0
'PM.Fabian' 'november2.pm' 31 3.0 4.0
'PM.Fabian' 'november2.pm' 32 3.0 4.0
'PM.Fabian' 'november2.pm' 35 3.0 4.0
'PM.Fabian' 'november2.pm' 36 3.0 4.0
'PM.Fabian' 'november2.pm' 37 3.0 4.0
'PM.Fabian' 'november2.pm' 38 3.0 4.0
'PM.Fabian' 'november2.pm' 39 3.0 4.0
'PM.Fabian' 'november2.pm' 42 3.0 4.0
'PM.Fabian' 'november2.pm' 43 3.0 4.0
'PM.Fabian' 'november2.pm' 44 3.0 4.0
'PM.Fabian' 'november2.pm' 45 3.0 4.0
'PM.Fabian' 'november2.pm' 46 3.0 4.0
'PM.Fabian' 'november2.pm' 49 3.0 4.0
'PM.Fabian' 'november2.pm' 50 3.0 4.0
'PM.Fabian' 'november2.pm' 51 3.0 4.0
'PM.Fabian' 'november2.pm' 52 3.0 4.0
'PM.Fabian' 'november2.pm' 53 3.0 4.0
'PM.Fabian' 'november2.pm' 56 3.0 4.0
'PM.Fabian' 'november2.pm' 57 3.0 4.0
'PM.Fabian' 'november2.pm' 58 3.0 4.0
'PM.Fabian' 'november2.pm' 59 3.0 4.0
'PM.Fabian' 'november2.pm' 60 3.0 4.0
'PM.Fabian' 'november2.pm' 63 3.0 4.0
'PM.Fabian' 'november2.pm' 64 3.0 4.0
'PM.Fabian' 'november2.pm' 65 3.0 4.0
'PM.Fabian' 'november2.pm' 66 3.0 4.0
'PM.Fabian' 'november2.pm' 67 3.0 4.0
'PM.Fabian' 'november2.pm' 70 3.0 4.0
'PM.Fabian' 'november2.pm' 71 3.0 4.0
'PM.Fabian' 'november2.pm' 72 3.0 4.0
'PM.Fabian' 'november2.pm' 73 3.0 4.0
'PM.Fabian' 'november2.pm' 74 3.0 4.0
'PM.Fabian' 'november2.pm' 77 3.0 4.0
'PM.Fabian' 'november2.pm' 78 3.0 4.0
'PM.Fabian' 'november2.pm' 79 3.0 4.0
'PM.Fabian' 'november2.pm' 80 3.0 4.0
'PM.Fabian' 'november2.pm' 81 3.0 4.0
'PM.Fabian' 'november2.pm' 84 3.0 4.0
'PM.Fabian' 'november2.pm' 85 3.0 4.0
'PM.Fabian' 'november2.pm' 86 3.0 4.0
'PM.Fabian' 'november2.pm' 87 3.0 4.0
'PM.Fabian' 'november2.pf' 88 11.0 12.0
'PM.Fabian' 'november2.pf' 91 11.0 12.0
'PM.Fabian' 'november2.pf' 92 11.0 12.0
'PM.Fabian' 'november2.pf' 93 11.0 12.0
'PM.Fabian' 'november2.pf' 94 11.0 12.0
'PM.Fabian' 'november2.pf' 95 11.0 12.0
'PM.Fabian' 'november2.pf' 98 11.0 12.0
'PM.Fabian' 'romeo2.pm' 3 1.0 2.0
'PM.Fabian' 'romeo2.pm' 4 1.0 2.0
'PM.Fabian' 'romeo2.pm' 7 1.0 2.0
'PM.Fabian' 'romeo2.pm' 8 1.0 2.0
'PM.Fabian' 'romeo2.pm' 9 1.0 2.0
'PM.Fabian' 'romeo2.pm' 10 1.0 2.0
'PM.Fabian' 'romeo2.pm' 11 1.0 2.0
'PM.Fabian' 'romeo2.pm' 14 1.0 2.0
'PM.Fabian' 'romeo2.pm' 15 1.0 2.0
'PM.Fabian' 'romeo2.pm' 16 1.0 2.0
'PM.Fabian' 'romeo2.pm' 17 1.0 2.0
'PM.Fabian' 'romeo2.pm' 18 1.0 2.0
'PM.Fabian' 'romeo2.pm' 21 1.0 2.0
'PM.Fabian' 'romeo2.pm' 22 1.0 2.0
'PM.Fabian' 'romeo2.pm' 23 1.0 2.0
'PM.Fabian' 'romeo2.pm' 24 1.0 2.0
'PM.Fabian' 'romeo2.pm' 25 1.0 2.0
'PM.Fabian' 'romeo2.pm' 28 1.0 2.0
'PM.Fabian' 'romeo2.pm' 29 1.0 2.0
'PM.Fabian' 'romeo2.pm' 30 1.0 2.0
'PM.Fabian' 'romeo2.pm' 31 1.0 2.0
'PM.Fabian' 'romeo2.pm' 32 1.0 2.0
'PM.Fabian' 'romeo2.pm' 35 1.0 2.0
'PM.Fabian' 'romeo2.pm' 36 1.0 2.0
'PM.Fabian' 'romeo2.pm' 37 1.0 2.0
'PM.Fabian' 'romeo2.pm' 38 1.0 2.0
'PM.Fabian' 'romeo2.pm' 39 1.0 2.0
'PM.Fabian' 'romeo2.pm' 42 1.0 2.0
'PM.Fabian' 'romeo2.pm' 43 1.0 2.0
'PM.Fabian' 'romeo2.pm' 44 1.0 2.0
'PM.Fabian' 'romeo2.pm' 45 1.0 2.0
'PM.Fabian' 'romeo2.pm' 46 1.0 2.0
'PM.Fabian' 'romeo2.pm' 49 1.0 2.0
'PM.Fabian' 'romeo2.pm' 50 1.0 2.0
'PM.Fabian' 'romeo2.pm' 51 1.0 2.0
'PM.Fabian' 'romeo2.pm' 52 1.0 2.0
'PM.Fabian' 'romeo2.pm' 53 1.0 2.0
'PM.Fabian' 'romeo2.pm' 56 1.0 2.0
'PM.Fabian' 'romeo2.pm' 57 1.0 2.0
'PM.Fabian' 'romeo2.pm' 58 1.0 2.0
'PM.Fabian' 'romeo2.pm' 59 1.0 2.0
'PM.Fabian' 'romeo2.pm' 60 1.0 2.0
'PM.Fabian' 'romeo2.pm' 63 1.0 2.0
'PM.Fabian' 'romeo2.pm' 64 1.0 2.0
'PM.Fabian' 'romeo2.pm' 65 1.0 2.0
'PM.Fabian' 'romeo2.pm' 66 1.0 2.0
'PM.Fabian' 'romeo2.pm' 67 1.0 2.0
'PM.Fabian' 'romeo2.pm' 70 1.0 2.0
'PM.Fabian' 'romeo2.pm' 71 1.0 2.0
'PM.Fabian' 'romeo2.pm' 72 1.0 2.0
'PM.Fabian' 'romeo2.pm' 73 1.0 2.0
'PM.Fabian' 'romeo2.pm' 74 1.0 2.0
'PM.Fabian' 'romeo2.pm' 77 1.0 2.0
'PM.Fabian' 'romeo2.pm' 78 1.0 2.0
'PM.Fabian' 'romeo2.pm' 79 1.0 2.0
'PM.Fabian' 'romeo2.pm' 80 1.0 2.0
'PM.Fabian' 'romeo2.pm' 81 1.0 2.0
'PM.Fabian' 'romeo2.pm' 84 1.0 2.0
'PM.Fabian' 'romeo2.pm' 85 1.0 2.0
'PM.Fabian' 'romeo2.pm' 86 1.0 2.0
'PM.Fabian' 'romeo2.pm' 87 1.0 2.0
'PM.Fabian' 'romeo2.pm' 88 1.0 2.0
'PM.Fabian' 'romeo2.pm' 91 1.0 2.0
'PM.Fabian' 'romeo2.pm' 92 1.0 2.0
'PM.Fabian' 'romeo2.pm' 93 1.0 2.0
'PM.Fabian' 'romeo2.pm' 94 1.0 2.0
'PM.Fabian' 'romeo2.pm' 95 1.0 2.0
'PM.Fabian' 'romeo2.pm' 98 1.0 2.0
'PM.Fabian' 'romeo2.pm' 99 1.0 2.0
'PM.Fabian' 'romeo2.pm' 100 1.0 2.0
'PM.Fabian' 'romeo2.pm' 101 1.0 2.0
'PM.Fabian' 'romeo2.pm' 102 1.0 2.0
'PM.Fabian' 'romeo2.pm' 105 1.0 2.0
'PM.Fabian' 'romeo2.pm' 106 1.0 2.0
'PM.Fabian' 'romeo2.pm' 107 1.0 2.0
'PM.Fabian' 'romeo2.pm' 108 1.0 2.0
'PM.Fabian' 'romeo2.pm' 109 1.0 2.0
'PM.Fabian' 'romeo2.pm' 112 1.0 2.0
'PM.Fabian' 'romeo2.pm' 113 1.0 2.0
'PM.Fabian' 'romeo2.pm' 114 1.0 2.0
'PM.Fabian' 'romeo2.pm' 115 1.0 2.0
'PM.Fabian' 'romeo2.pm' 116 1.0 2.0
'PM.Fabian' 'romeo2.pm' 119 1.0 2.0
'PM.Fabian' 'romeo2.pm' 120 1.0 2.0
'PM.Fabian' 'romeo2.pm' 121 1.0 2.0
'PM.Fabian' 'romeo2.pm' 123 1.0 2.0
'PM.Fabian' 'romeo2.pm' 126 1.0 2.0
'PM.Fabian' 'romeo2.pm' 127 1.0 2.0
'PM.Fabian' 'romeo2.pm' 128 1.0 2.0
'PM.Fabian' 'romeo2.pm' 129 1.0 2.0
'PM.Fabian' 'romeo2.pm' 130 1.0 2.0
'PM.Fabian' 'romeo2.pm' 133 1.0 2.0
'PM.Fabian' 'romeo2.pm' 134 1.0 2.0
'PM.Fabian' 'romeo2.pm' 135 1.0 2.0
'PM.Fabian' 'romeo2.pm' 136 1.0 2.0
'PM.Fabian' 'romeo2.pm' 137 1.0 2.0
'PM.Fabian' 'romeo2.pm' 140 1.0 2.0
'PM.Fabian' 'romeo2.pm' 141 1.0 2.0
'PM.Fabian' 'romeo2.pm' 142 1.0 2.0
'PM.Fabian' 'romeo2.pf' 143 7.0 8.0
'PM.Fabian' 'romeo2.pf' 144 7.0 8.0
'PM.Fabian' 'romeo2.pf' 147 7.0 8.0
'PM.Fabian' 'romeo2.pf' 148 7.0 8.0
'PM.Fabian' 'romeo2.pf' 149 7.0 8.0
'PM.Fabian' 'romeo2.pf' 150 7.0 8.0
'PM.Fabian' 'romeo2.pf' 151 7.0 8.0
'PM.Fabian' 'romeo2.pf' 154 7.0 8.0
'PM.Fabian' 'victor2.pe' 77 13.0 14.0
'PM.Fabian' 'victor2.pe' 78 13.0 14.0
'PM.Fabian' 'victor2.pe' 79 13.0 14.0
'PM.Fabian' 'victor2.pe' 80 13.0 14.0
'PM.Fabian' 'victor2.pe' 81 13.0 14.0
'PM.Fabian' 'victor2.pe' 84 13.0 14.0
'PM.Fabian' 'victor2.pe' 85 13.0 14.0
'PM.Fabian' 'victor2.pe' 86 13.0 14.0
'PM.Fabian' 'victor2.pe' 87 13.0 14.0
'PM.Fabian' 'victor2.pe' 88 13.0 14.0
'PM.Fabian' 'victor2.pe' 91 13.0 14.0
'PM.Fabian' 'victor2.pe' 92 13.0 14.0
'PM.Fabian' 'victor2.pe' 93 13.0 14.0
'PM.Fabian' 'victor2.pe' 94 13.0 14.0
'PM.Fabian' 'victor2.pe' 95 13.0 14.0
'PM.Fabian' 'victor2.pe' 98 13.0 14.0
'PM.Fabian' 'victor2.pe' 99 13.0 14.0
'PM.Fabian' 'victor2.pe' 100 13.0 14.0
'PM.Fabian' 'victor2.pm' 101 3.0 4.0
'PM.Fabian' 'victor2.pm' 102 3.0 4.0
'PM.Fabian' 'victor2.pm' 105 3.0 4.0
'PM.Fabian' 'victor2.pm' 106 3.0 4.0
'PM.Fabian' 'victor2.pm' 107 3.0 4.0
'PM.Fabian' 'victor2.pm' 108 3.0 4.0
'PM.Fabian' 'victor2.pm' 109 3.0 4.0
'PM.Fabian' 'victor2.pm' 112 3.0 4.0
'PM.Fabian' 'victor2.pm' 113 3.0 4.0
'PM.Fabian' 'victor2.pm' 114 3.0 4.0
'PM.Fabian' 'victor2.pm' 115 3.0 4.0
'PM.Fabian' 'victor2.pm' 116 3.0 4.0
'PM.Fabian' 'victor2.pm' 119 3.0 4.0
'PM.Fabian' 'victor2.pm' 120 3.0 4.0
'PM.Fabian' 'victor2.pm' 121 3.0 4.0
'PM.Fabian' 'victor2.pm' 123 3.0 4.0
'PM.Fabian' 'victor2.pm' 126 3.0 4.0
'PM.Fabian' 'victor2.pm' 127 3.0 4.0
'PM.Fabian' 'victor2.pm' 128 3.0 4.0
'PM.Fabian' 'victor2.pm' 129 3.0 4.0
'PM.Fabian' 'victor2.pm' 130 3.0 4.0
'PM.Fabian' 'victor2.pm' 133 3.0 4.0
'PM.Fabian' 'victor2.pm' 134 3.0 4.0
'PM.Fabian' 'victor2.pm' 135 3.0 4.0
'PM.Fabian' 'victor2.pm' 136 3.0 4.0
'PM.Fabian' 'victor2.pm' 137 3.0 4.0
'PM.Fabian' 'victor2.pm' 140 3.0 4.0
'PM.Fabian' 'victor2.pm' 141 3.0 4.0
'PM.Fabian' 'victor2.pm' 142 3.0 4.0
'PM.Fabian' 'victor2.pm' 143 3.0 4.0
'PM.Fabian' 'victor2.pm' 144 3.0 4.0
'PM.Fabian' 'victor2.pm' 147 3.0 4.0
'PM.Fabian' 'victor2.pm' 148 3.0 4.0
'PM.Fabian' 'victor2.pm' 149 3.0 4.0
'PM.Fabian' 'victor2.pm' 150 3.0 4.0
'PM.Fabian' 'victor2.pm' 151 3.0 4.0
'PM.Fabian' 'victor2.pm' 154 3.0 4.0
'PM.Fabian' 'victor2.pm' 155 3.0 4.0
'PM.Fabian' 'victor2.pm' 156 3.0 4.0
'PM.Fabian' 'victor2.pm' 157 3.0 4.0
'PM.Fabian' 'victor2.pm' 158 3.0 4.0
'PM.Fabian' 'victor2.pm' 161 3.0 4.0
'PM.Fabian' 'victor2.pm' 162 3.0 4.0
'PM.Fabian' 'victor2.pm' 163 3.0 4.0
'PM.Fabian' 'victor2.pm' 164 3.0 4.0
'PM.Fabian' 'victor2.pm' 165 3.0 4.0
'PM.Fabian' 'victor2.pm' 168 3.0 4.0
'PM.Fabian' 'victor2.pm' 169 3.0 4.0
'PM.Fabian' 'victor2.pm' 170 3.0 4.0
'PM.Fabian' 'victor2.pm' 171 3.0 4.0
'PM.Fabian' 'victor2.pm' 172 3.0 4.0
'PM.Fabian' 'victor2.pm' 175 3.0 4.0
'PM.Fabian' 'victor2.pm' 176 3.0 4.0
'PM.Fabian' 'victor2.pm' 177 3.0 4.0
'PM.Fabian' 'victor2.pm' 178 3.0 4.0
'PM.Fabian' 'victor2.pm' 179 3.0 4.0
'PM.Fabian' 'victor2.pm' 182 3.0 4.0
'PM.Fabian' 'victor2.pm' 183 3.0 4.0
'PM.Fabian' 'victor2.pm' 184 3.0 4.0
'PM.Fabian' 'victor2.pm' 185 3.0 4.0
'PM.Fabian' 'victor2.pm' 186 3.0 4.0
'PM.Fabian' 'victor2.pm' 189 3.0 4.0
'PM.Fabian' 'victor2.pm' 190 3.0 4.0
'PM.Fabian' 'victor2.pm' 191 3.0 4.0
'PM.Fabian' 'victor2.pm' 192 3.0 4.0
'PM.Fabian' 'victor2.pm' 193 3.0 4.0
'PM.Fabian' 'victor2.pm' 196 3.0 4.0
'PM.Fabian' 'victor2.pm' 197 3.0 4.0
'PM.Fabian' 'victor2.pm' 198 3.0 4.0
'PM.Fabian' 'victor2.pm' 199 3.0 4.0
'PM.Fabian' 'victor2.pm' 200 3.0 4.0
'PM.Fabian' 'victor2.pm' 203 3.0 4.0
'PM.Fabian' 'victor2.pm' 204 3.0 4.0
'PM.Fabian' 'victor2.pm' 205 3.0 4.0
'PM.Fabian' 'victor2.pm' 206 3.0 4.0
'PM.Fabian' 'victor2.pm' 207 3.0 4.0
'PM.Fabian' 'victor2.pm' 210 3.0 4.0
'PM.Fabian' 'victor2.pm' 211 3.0 4.0
'PM.Fabian' 'victor2.pm' 212 3.0 4.0
'PM.Fabian' 'victor2.pm' 213 3.0 4.0
'PM.Fabian' 'victor2.pm' 214 3.0 4.0
'PM.Fabian' 'victor2.pm' 217 3.0 4.0
'PM.Fabian' 'victor2.pm' 218 3.0 4.0
'PM.Fabian' 'victor2.pm' 219 3.0 4.0
'PM.Fabian' 'victor2.pm' 220 3.0 4.0
'PM.Fabian' 'victor2.pm' 221 3.0 4.0
'PM.Fabian' 'victor2.pm' 224 3.0 4.0
'PM.Fabian' 'victor2.pm' 225 3.0 4.0
'PM.Fabian' 'victor2.pm' 226 3.0 4.0
'PM.Fabian' 'victor2.pm' 227 3.0 4.0
'PM.Fabian' 'victor2.pm' 228 3.0 4.0
'PM.Fabian' 'victor2.pm' 231 3.0 4.0
'PM.Fabian' 'victor2.pf' 232 8.0 9.0
'PM.Fabian' 'victor2.pf' 233 8.0 9.0
'PM.Fabian' 'victor2.pf' 234 8.0 9.0
'PM.Fabian' 'victor2.pf' 235 8.0 9.0
'PM.Fabian' 'victor2.pf' 238 8.0 9.0
'PM.Fabian' 'victor2.pf' 239 8.0 9.0
'PM.Fabian' 'victor2.pf' 240 8.0 9.0
'PM.Fabian' 'victor2.pf' 241 8.0 9.0
'PM.Fabian' 'victor2.pf' 242 8.0 9.0
'PM.Fabian' 'victor2.pf' 245 8.0 9.0
;

param:
EBID: EBN EBS EBE EBL EBU :=

;

param:
PNAME: PERS PERE :=
'Jan.25' 1 16
'Feb.25' 17 45
'Mar.25' 46 76
'Apr.25' 77 105
'May.25' 106 139
'Jun.25' 140 170
'Jul.25' 171 199
'Aug.25' 200 230
'Sep.25' 231 259
'Oct.25' 260 289
'Nov.25' 290 317
'Dec.25' 318 346
;

param:
EXPPER: PBL PBU :=
'PM.Fabian' 'Jan.25' 0 720
'PM.Fabian' 'Feb.25' 0 720
'PM.Fabian' 'Mar.25' 0 720
'PM.Fabian' 'Apr.25' 0 720
'PM.Fabian' 'May.25' 0 720
'PM.Fabian' 'Jun.25' 0 720
'PM.Fabian' 'Jul.25' 0 720
'PM.Fabian' 'Aug.25' 0 720
'PM.Fabian' 'Sep.25' 0 720
'PM.Fabian' 'Oct.25' 0 720
'PM.Fabian' 'Nov.25' 0 720
'PM.Fabian' 'Dec.25' 0 720
;

